44 97 91 49 74 85 40 99 84 95 90 89 93 81 54 34 78 35 98 88 79 18 67 92 86 68 94 70 10 83 47 82 80 12 65 51 77 72 73 71 57 75 26 8 15 29 2 62 20 50 55 23 42 6 32 22 16 11 41 7 24 28 48 25 59 64 36 17 14 37 58 56 9 19 38 43 87 52 66 46 45 21 31 33 76 69 39 0 13 61 53 96 1 63 30 60 3 5 4 27 

